db/inputs/179721623430869269310636258551461831553.smt2
(set-logic QF_FP)
(declare-const x0 (_ FloatingPoint 11 53))
(declare-const x1 (_ FloatingPoint 11 53))
(declare-const x2 (_ FloatingPoint 11 53))
(declare-const x3 (_ FloatingPoint 11 53))
(declare-const x4 (_ FloatingPoint 11 53))
(declare-const x5 (_ FloatingPoint 11 53))
(declare-const x6 (_ FloatingPoint 11 53))
(declare-const x7 (_ FloatingPoint 11 53))
(declare-const x8 (_ FloatingPoint 11 53))
(declare-const x9 (_ FloatingPoint 11 53))
(declare-const x10 (_ FloatingPoint 11 53))
(declare-const x11 (_ FloatingPoint 11 53))
(declare-const x12 (_ FloatingPoint 11 53))
(assert (fp.eq (fp.mul RNE (fp.mul RNE x7 x2) (fp.div RNE x12 x9)) (fp.neg (fp.add RNE x3 x1))))
(assert (fp.gt (fp.mul RNE (fp.sub RNE x0 x5) (fp.sub RNE x5 x10)) (fp.div RNE (fp.sub RNE x4 x3) (fp.div RNE x12 x9))))
(check-sat)
