db/data/179721623430869269310636258551461831553.z3.out
-------------------
2500.153825891
